NAME 
OBJSENSE MAX
ROWS
 N  OBJ
 L  packing[0]
 L  packing[1]
 L  packing[2]
 L  packing[3]
 L  packing[4]
 L  packing[5]
 L  packing[6]
 L  packing[7]
 L  packing[8]
 L  packing[9]
 L  packing[10]
 L  packing[11]
 L  packing[12]
 L  packing[13]
 L  packing[14]
 L  packing[15]
 L  packing[16]
 L  packing[17]
 L  packing[18]
 L  packing[19]
 L  packing[20]
 L  packing[21]
 L  packing[22]
 L  packing[23]
 L  packing[24]
 L  packing[25]
 L  packing[26]
 L  packing[27]
 L  packing[28]
 L  packing[29]
 L  packing[30]
 L  packing[31]
 L  packing[32]
 L  packing[33]
 L  packing[34]
 L  packing[35]
 L  packing[36]
 L  packing[37]
 L  packing[38]
 L  packing[39]
 L  packing[40]
 L  packing[41]
 L  packing[42]
 L  packing[43]
 L  packing[44]
 L  packing[45]
 L  packing[46]
 L  packing[47]
 L  packing[48]
 L  packing[49]
 L  R52     
COLUMNS
    MARKER    'MARKER'                 'INTORG'
    x[1]      OBJ       154
    x[1]      packing[0]  90
    x[1]      packing[1]  114
    x[1]      packing[2]  170
    x[1]      packing[4]  7
    x[1]      packing[6]  168
    x[1]      packing[7]  140
    x[1]      packing[8]  121
    x[1]      packing[9]  180
    x[1]      packing[13]  117
    x[1]      packing[14]  83
    x[1]      packing[15]  83
    x[1]      packing[19]  195
    x[1]      packing[20]  184
    x[1]      packing[21]  69
    x[1]      packing[22]  107
    x[1]      packing[24]  67
    x[1]      packing[26]  145
    x[1]      packing[27]  118
    x[1]      packing[29]  98
    x[1]      packing[30]  75
    x[1]      packing[31]  111
    x[1]      packing[32]  124
    x[1]      packing[33]  162
    x[1]      packing[34]  10
    x[1]      packing[37]  74
    x[1]      packing[39]  107
    x[1]      packing[40]  73
    x[1]      packing[42]  101
    x[1]      packing[43]  48
    x[1]      packing[44]  116
    x[1]      packing[46]  155
    x[1]      packing[47]  3
    x[1]      packing[48]  107
    x[1]      packing[49]  71
    x[2]      OBJ       185
    x[2]      packing[1]  36
    x[2]      packing[2]  76
    x[2]      packing[3]  57
    x[2]      packing[4]  112
    x[2]      packing[5]  15
    x[2]      packing[6]  179
    x[2]      packing[7]  93
    x[2]      packing[9]  53
    x[2]      packing[11]  190
    x[2]      packing[12]  198
    x[2]      packing[13]  170
    x[2]      packing[14]  21
    x[2]      packing[15]  160
    x[2]      packing[16]  181
    x[2]      packing[19]  148
    x[2]      packing[20]  40
    x[2]      packing[21]  101
    x[2]      packing[22]  186
    x[2]      packing[23]  34
    x[2]      packing[25]  123
    x[2]      packing[28]  88
    x[2]      packing[30]  166
    x[2]      packing[31]  193
    x[2]      packing[32]  8
    x[2]      packing[33]  146
    x[2]      packing[34]  157
    x[2]      packing[36]  37
    x[2]      packing[37]  34
    x[2]      packing[38]  198
    x[2]      packing[39]  108
    x[2]      packing[40]  99
    x[2]      packing[41]  60
    x[2]      packing[42]  159
    x[2]      packing[45]  100
    x[2]      packing[46]  36
    x[2]      packing[47]  118
    x[2]      packing[48]  19
    x[2]      packing[49]  150
    x[2]      R52       1
    x[3]      OBJ       88
    x[3]      packing[0]  45
    x[3]      packing[1]  148
    x[3]      packing[3]  193
    x[3]      packing[4]  2
    x[3]      packing[5]  158
    x[3]      packing[6]  102
    x[3]      packing[7]  14
    x[3]      packing[8]  71
    x[3]      packing[9]  137
    x[3]      packing[10]  95
    x[3]      packing[11]  25
    x[3]      packing[12]  112
    x[3]      packing[13]  21
    x[3]      packing[14]  34
    x[3]      packing[15]  58
    x[3]      packing[16]  158
    x[3]      packing[17]  130
    x[3]      packing[19]  167
    x[3]      packing[20]  108
    x[3]      packing[21]  80
    x[3]      packing[22]  165
    x[3]      packing[24]  99
    x[3]      packing[25]  100
    x[3]      packing[26]  84
    x[3]      packing[27]  28
    x[3]      packing[28]  185
    x[3]      packing[29]  181
    x[3]      packing[30]  18
    x[3]      packing[31]  102
    x[3]      packing[32]  2
    x[3]      packing[33]  12
    x[3]      packing[34]  49
    x[3]      packing[38]  90
    x[3]      packing[39]  141
    x[3]      packing[40]  176
    x[3]      packing[42]  47
    x[3]      packing[43]  14
    x[3]      packing[44]  130
    x[3]      packing[45]  160
    x[3]      packing[46]  127
    x[3]      packing[47]  153
    x[3]      packing[48]  67
    x[3]      packing[49]  95
    x[4]      OBJ       183
    x[4]      packing[1]  140
    x[4]      packing[2]  99
    x[4]      packing[4]  127
    x[4]      packing[5]  181
    x[4]      packing[6]  88
    x[4]      packing[7]  98
    x[4]      packing[9]  48
    x[4]      packing[10]  88
    x[4]      packing[11]  169
    x[4]      packing[12]  111
    x[4]      packing[13]  141
    x[4]      packing[14]  46
    x[4]      packing[17]  140
    x[4]      packing[18]  23
    x[4]      packing[21]  28
    x[4]      packing[22]  9
    x[4]      packing[23]  66
    x[4]      packing[24]  189
    x[4]      packing[25]  103
    x[4]      packing[27]  184
    x[4]      packing[28]  97
    x[4]      packing[29]  22
    x[4]      packing[30]  156
    x[4]      packing[31]  116
    x[4]      packing[32]  182
    x[4]      packing[33]  121
    x[4]      packing[34]  153
    x[4]      packing[35]  41
    x[4]      packing[37]  7
    x[4]      packing[39]  53
    x[4]      packing[40]  122
    x[4]      packing[41]  118
    x[4]      packing[43]  175
    x[4]      packing[44]  153
    x[4]      packing[47]  33
    x[4]      packing[49]  57
    x[4]      R52       1
    x[5]      OBJ       8
    x[5]      packing[0]  156
    x[5]      packing[2]  63
    x[5]      packing[3]  27
    x[5]      packing[4]  107
    x[5]      packing[5]  32
    x[5]      packing[7]  114
    x[5]      packing[8]  34
    x[5]      packing[9]  186
    x[5]      packing[10]  183
    x[5]      packing[11]  28
    x[5]      packing[12]  110
    x[5]      packing[13]  194
    x[5]      packing[14]  32
    x[5]      packing[15]  155
    x[5]      packing[17]  156
    x[5]      packing[18]  57
    x[5]      packing[20]  6
    x[5]      packing[22]  190
    x[5]      packing[24]  2
    x[5]      packing[26]  99
    x[5]      packing[27]  167
    x[5]      packing[28]  90
    x[5]      packing[29]  59
    x[5]      packing[30]  127
    x[5]      packing[32]  82
    x[5]      packing[33]  11
    x[5]      packing[34]  190
    x[5]      packing[35]  185
    x[5]      packing[36]  96
    x[5]      packing[37]  88
    x[5]      packing[39]  35
    x[5]      packing[40]  80
    x[5]      packing[41]  86
    x[5]      packing[42]  88
    x[5]      packing[43]  142
    x[5]      packing[46]  80
    x[5]      packing[48]  36
    x[5]      packing[49]  26
    x[6]      OBJ       181
    x[6]      packing[1]  159
    x[6]      packing[3]  10
    x[6]      packing[4]  31
    x[6]      packing[5]  75
    x[6]      packing[8]  83
    x[6]      packing[9]  191
    x[6]      packing[10]  91
    x[6]      packing[11]  113
    x[6]      packing[13]  47
    x[6]      packing[14]  149
    x[6]      packing[15]  73
    x[6]      packing[16]  124
    x[6]      packing[17]  40
    x[6]      packing[18]  49
    x[6]      packing[20]  7
    x[6]      packing[21]  71
    x[6]      packing[22]  95
    x[6]      packing[23]  156
    x[6]      packing[24]  52
    x[6]      packing[25]  109
    x[6]      packing[26]  145
    x[6]      packing[27]  85
    x[6]      packing[31]  96
    x[6]      packing[32]  114
    x[6]      packing[33]  164
    x[6]      packing[34]  145
    x[6]      packing[35]  30
    x[6]      packing[36]  72
    x[6]      packing[38]  193
    x[6]      packing[39]  2
    x[6]      packing[40]  54
    x[6]      packing[41]  47
    x[6]      packing[42]  132
    x[6]      packing[43]  43
    x[6]      packing[44]  66
    x[6]      packing[46]  51
    x[6]      packing[47]  59
    x[6]      packing[49]  118
    x[7]      OBJ       120
    x[7]      packing[1]  187
    x[7]      packing[2]  110
    x[7]      packing[3]  146
    x[7]      packing[4]  113
    x[7]      packing[5]  30
    x[7]      packing[6]  126
    x[7]      packing[7]  81
    x[7]      packing[8]  172
    x[7]      packing[9]  197
    x[7]      packing[10]  92
    x[7]      packing[11]  161
    x[7]      packing[14]  31
    x[7]      packing[15]  27
    x[7]      packing[16]  42
    x[7]      packing[17]  177
    x[7]      packing[18]  91
    x[7]      packing[19]  151
    x[7]      packing[20]  141
    x[7]      packing[22]  128
    x[7]      packing[24]  176
    x[7]      packing[26]  154
    x[7]      packing[27]  156
    x[7]      packing[29]  163
    x[7]      packing[30]  186
    x[7]      packing[31]  18
    x[7]      packing[32]  99
    x[7]      packing[33]  155
    x[7]      packing[34]  50
    x[7]      packing[35]  7
    x[7]      packing[37]  135
    x[7]      packing[38]  67
    x[7]      packing[39]  47
    x[7]      packing[40]  53
    x[7]      packing[41]  39
    x[7]      packing[42]  22
    x[7]      packing[43]  103
    x[7]      packing[45]  3
    x[7]      packing[46]  24
    x[7]      packing[48]  197
    x[8]      OBJ       68
    x[8]      packing[0]  199
    x[8]      packing[1]  81
    x[8]      packing[3]  119
    x[8]      packing[4]  184
    x[8]      packing[5]  76
    x[8]      packing[6]  50
    x[8]      packing[8]  42
    x[8]      packing[9]  134
    x[8]      packing[10]  131
    x[8]      packing[11]  7
    x[8]      packing[14]  62
    x[8]      packing[15]  174
    x[8]      packing[17]  60
    x[8]      packing[19]  66
    x[8]      packing[20]  1
    x[8]      packing[21]  145
    x[8]      packing[22]  22
    x[8]      packing[24]  167
    x[8]      packing[25]  148
    x[8]      packing[26]  116
    x[8]      packing[27]  14
    x[8]      packing[29]  140
    x[8]      packing[30]  100
    x[8]      packing[31]  31
    x[8]      packing[32]  93
    x[8]      packing[33]  32
    x[8]      packing[34]  164
    x[8]      packing[35]  163
    x[8]      packing[37]  56
    x[8]      packing[38]  175
    x[8]      packing[39]  145
    x[8]      packing[41]  12
    x[8]      packing[42]  5
    x[8]      packing[44]  48
    x[8]      packing[46]  46
    x[8]      packing[47]  43
    x[8]      packing[48]  108
    x[8]      packing[49]  3
    x[9]      OBJ       173
    x[9]      packing[1]  84
    x[9]      packing[2]  182
    x[9]      packing[3]  133
    x[9]      packing[4]  140
    x[9]      packing[5]  84
    x[9]      packing[6]  95
    x[9]      packing[7]  92
    x[9]      packing[8]  47
    x[9]      packing[9]  92
    x[9]      packing[10]  58
    x[9]      packing[11]  97
    x[9]      packing[12]  114
    x[9]      packing[13]  55
    x[9]      packing[14]  71
    x[9]      packing[16]  40
    x[9]      packing[18]  89
    x[9]      packing[19]  78
    x[9]      packing[21]  116
    x[9]      packing[22]  135
    x[9]      packing[24]  80
    x[9]      packing[26]  97
    x[9]      packing[27]  56
    x[9]      packing[30]  144
    x[9]      packing[31]  20
    x[9]      packing[32]  137
    x[9]      packing[33]  147
    x[9]      packing[35]  11
    x[9]      packing[36]  196
    x[9]      packing[37]  72
    x[9]      packing[40]  82
    x[9]      packing[41]  174
    x[9]      packing[42]  115
    x[9]      packing[43]  63
    x[9]      packing[44]  40
    x[9]      packing[45]  194
    x[9]      packing[48]  146
    x[9]      R52       1
    x[10]     OBJ       9
    x[10]     packing[0]  143
    x[10]     packing[2]  41
    x[10]     packing[3]  134
    x[10]     packing[4]  31
    x[10]     packing[5]  10
    x[10]     packing[6]  3
    x[10]     packing[7]  109
    x[10]     packing[8]  71
    x[10]     packing[9]  105
    x[10]     packing[11]  143
    x[10]     packing[12]  199
    x[10]     packing[13]  124
    x[10]     packing[14]  20
    x[10]     packing[15]  33
    x[10]     packing[16]  26
    x[10]     packing[18]  171
    x[10]     packing[21]  153
    x[10]     packing[22]  75
    x[10]     packing[23]  102
    x[10]     packing[24]  105
    x[10]     packing[25]  95
    x[10]     packing[26]  71
    x[10]     packing[27]  137
    x[10]     packing[28]  15
    x[10]     packing[29]  182
    x[10]     packing[30]  37
    x[10]     packing[31]  88
    x[10]     packing[32]  101
    x[10]     packing[33]  160
    x[10]     packing[34]  9
    x[10]     packing[36]  91
    x[10]     packing[37]  164
    x[10]     packing[38]  185
    x[10]     packing[40]  124
    x[10]     packing[42]  21
    x[10]     packing[44]  128
    x[10]     packing[45]  103
    x[10]     packing[46]  48
    x[10]     packing[48]  1
    x[10]     packing[49]  36
    x[11]     OBJ       106
    x[11]     packing[0]  124
    x[11]     packing[2]  50
    x[11]     packing[3]  137
    x[11]     packing[4]  162
    x[11]     packing[5]  163
    x[11]     packing[7]  60
    x[11]     packing[8]  1
    x[11]     packing[11]  137
    x[11]     packing[12]  38
    x[11]     packing[14]  40
    x[11]     packing[15]  25
    x[11]     packing[16]  67
    x[11]     packing[18]  142
    x[11]     packing[19]  60
    x[11]     packing[21]  160
    x[11]     packing[23]  85
    x[11]     packing[24]  48
    x[11]     packing[26]  107
    x[11]     packing[28]  122
    x[11]     packing[30]  127
    x[11]     packing[31]  88
    x[11]     packing[33]  191
    x[11]     packing[34]  115
    x[11]     packing[35]  69
    x[11]     packing[36]  169
    x[11]     packing[37]  61
    x[11]     packing[38]  4
    x[11]     packing[40]  77
    x[11]     packing[41]  4
    x[11]     packing[43]  187
    x[11]     packing[44]  159
    x[11]     packing[45]  69
    x[11]     packing[47]  162
    x[11]     packing[48]  143
    x[11]     packing[49]  32
    x[12]     OBJ       172
    x[12]     packing[0]  132
    x[12]     packing[2]  146
    x[12]     packing[4]  113
    x[12]     packing[5]  89
    x[12]     packing[7]  93
    x[12]     packing[8]  31
    x[12]     packing[9]  40
    x[12]     packing[11]  76
    x[12]     packing[12]  80
    x[12]     packing[13]  194
    x[12]     packing[14]  44
    x[12]     packing[15]  145
    x[12]     packing[16]  90
    x[12]     packing[17]  132
    x[12]     packing[18]  98
    x[12]     packing[19]  187
    x[12]     packing[20]  186
    x[12]     packing[21]  173
    x[12]     packing[22]  174
    x[12]     packing[23]  57
    x[12]     packing[25]  137
    x[12]     packing[26]  7
    x[12]     packing[27]  177
    x[12]     packing[29]  142
    x[12]     packing[30]  66
    x[12]     packing[31]  86
    x[12]     packing[32]  55
    x[12]     packing[35]  29
    x[12]     packing[36]  95
    x[12]     packing[37]  80
    x[12]     packing[38]  120
    x[12]     packing[40]  18
    x[12]     packing[41]  186
    x[12]     packing[43]  139
    x[12]     packing[44]  187
    x[12]     packing[45]  192
    x[12]     packing[46]  67
    x[12]     packing[47]  171
    x[12]     packing[48]  53
    x[12]     packing[49]  39
    x[12]     R52       1
    x[13]     OBJ       179
    x[13]     packing[0]  94
    x[13]     packing[1]  149
    x[13]     packing[2]  17
    x[13]     packing[3]  72
    x[13]     packing[4]  81
    x[13]     packing[5]  190
    x[13]     packing[6]  126
    x[13]     packing[9]  12
    x[13]     packing[10]  56
    x[13]     packing[11]  115
    x[13]     packing[12]  121
    x[13]     packing[13]  78
    x[13]     packing[14]  64
    x[13]     packing[15]  166
    x[13]     packing[17]  65
    x[13]     packing[18]  79
    x[13]     packing[20]  102
    x[13]     packing[22]  38
    x[13]     packing[24]  131
    x[13]     packing[25]  186
    x[13]     packing[26]  80
    x[13]     packing[27]  149
    x[13]     packing[28]  61
    x[13]     packing[29]  163
    x[13]     packing[30]  122
    x[13]     packing[31]  37
    x[13]     packing[33]  31
    x[13]     packing[34]  43
    x[13]     packing[35]  133
    x[13]     packing[36]  55
    x[13]     packing[37]  185
    x[13]     packing[38]  7
    x[13]     packing[40]  159
    x[13]     packing[41]  113
    x[13]     packing[42]  43
    x[13]     packing[43]  62
    x[13]     packing[44]  33
    x[13]     packing[45]  15
    x[13]     packing[46]  97
    x[13]     packing[47]  112
    x[13]     packing[49]  33
    x[13]     R52       1
    x[14]     OBJ       65
    x[14]     packing[0]  127
    x[14]     packing[2]  176
    x[14]     packing[3]  39
    x[14]     packing[4]  29
    x[14]     packing[5]  120
    x[14]     packing[8]  168
    x[14]     packing[9]  14
    x[14]     packing[10]  150
    x[14]     packing[11]  11
    x[14]     packing[12]  81
    x[14]     packing[14]  103
    x[14]     packing[18]  196
    x[14]     packing[19]  89
    x[14]     packing[20]  9
    x[14]     packing[21]  105
    x[14]     packing[24]  23
    x[14]     packing[25]  133
    x[14]     packing[26]  155
    x[14]     packing[27]  104
    x[14]     packing[29]  190
    x[14]     packing[30]  123
    x[14]     packing[31]  83
    x[14]     packing[32]  185
    x[14]     packing[34]  126
    x[14]     packing[35]  149
    x[14]     packing[37]  187
    x[14]     packing[38]  104
    x[14]     packing[41]  158
    x[14]     packing[42]  54
    x[14]     packing[43]  60
    x[14]     packing[44]  188
    x[14]     packing[45]  141
    x[14]     packing[46]  150
    x[14]     packing[47]  11
    x[14]     packing[48]  104
    x[14]     packing[49]  66
    x[15]     OBJ       33
    x[15]     packing[0]  132
    x[15]     packing[1]  167
    x[15]     packing[2]  163
    x[15]     packing[3]  125
    x[15]     packing[4]  78
    x[15]     packing[6]  103
    x[15]     packing[9]  161
    x[15]     packing[10]  150
    x[15]     packing[12]  22
    x[15]     packing[13]  172
    x[15]     packing[15]  130
    x[15]     packing[16]  161
    x[15]     packing[17]  197
    x[15]     packing[18]  39
    x[15]     packing[19]  138
    x[15]     packing[20]  3
    x[15]     packing[24]  99
    x[15]     packing[28]  172
    x[15]     packing[29]  116
    x[15]     packing[30]  79
    x[15]     packing[32]  135
    x[15]     packing[34]  180
    x[15]     packing[35]  109
    x[15]     packing[36]  142
    x[15]     packing[37]  173
    x[15]     packing[38]  52
    x[15]     packing[40]  35
    x[15]     packing[41]  101
    x[15]     packing[42]  87
    x[15]     packing[43]  94
    x[15]     packing[44]  61
    x[15]     packing[45]  71
    x[15]     packing[46]  112
    x[15]     packing[47]  111
    x[15]     packing[48]  137
    x[16]     OBJ       51
    x[16]     packing[0]  157
    x[16]     packing[1]  140
    x[16]     packing[2]  151
    x[16]     packing[3]  8
    x[16]     packing[4]  20
    x[16]     packing[5]  69
    x[16]     packing[6]  40
    x[16]     packing[7]  150
    x[16]     packing[8]  47
    x[16]     packing[9]  36
    x[16]     packing[10]  39
    x[16]     packing[11]  142
    x[16]     packing[13]  85
    x[16]     packing[14]  66
    x[16]     packing[15]  8
    x[16]     packing[16]  161
    x[16]     packing[17]  114
    x[16]     packing[19]  16
    x[16]     packing[20]  6
    x[16]     packing[22]  112
    x[16]     packing[23]  52
    x[16]     packing[24]  43
    x[16]     packing[27]  25
    x[16]     packing[28]  152
    x[16]     packing[29]  78
    x[16]     packing[30]  52
    x[16]     packing[32]  70
    x[16]     packing[33]  191
    x[16]     packing[36]  179
    x[16]     packing[37]  95
    x[16]     packing[38]  93
    x[16]     packing[39]  17
    x[16]     packing[42]  36
    x[16]     packing[43]  189
    x[16]     packing[45]  115
    x[16]     packing[48]  199
    x[16]     packing[49]  17
    x[17]     OBJ       57
    x[17]     packing[0]  1
    x[17]     packing[1]  84
    x[17]     packing[2]  141
    x[17]     packing[3]  13
    x[17]     packing[5]  40
    x[17]     packing[6]  132
    x[17]     packing[7]  187
    x[17]     packing[9]  183
    x[17]     packing[11]  177
    x[17]     packing[13]  65
    x[17]     packing[15]  66
    x[17]     packing[17]  85
    x[17]     packing[18]  102
    x[17]     packing[19]  124
    x[17]     packing[21]  38
    x[17]     packing[22]  183
    x[17]     packing[23]  167
    x[17]     packing[24]  110
    x[17]     packing[25]  84
    x[17]     packing[26]  82
    x[17]     packing[27]  11
    x[17]     packing[28]  146
    x[17]     packing[31]  67
    x[17]     packing[32]  14
    x[17]     packing[33]  21
    x[17]     packing[34]  178
    x[17]     packing[35]  12
    x[17]     packing[36]  73
    x[17]     packing[37]  154
    x[17]     packing[38]  133
    x[17]     packing[39]  192
    x[17]     packing[41]  198
    x[17]     packing[42]  53
    x[17]     packing[43]  46
    x[17]     packing[44]  43
    x[17]     packing[47]  168
    x[17]     packing[49]  9
    x[18]     OBJ       74
    x[18]     packing[0]  159
    x[18]     packing[1]  193
    x[18]     packing[3]  154
    x[18]     packing[4]  130
    x[18]     packing[5]  105
    x[18]     packing[7]  8
    x[18]     packing[8]  122
    x[18]     packing[10]  101
    x[18]     packing[12]  163
    x[18]     packing[13]  45
    x[18]     packing[14]  165
    x[18]     packing[15]  123
    x[18]     packing[16]  52
    x[18]     packing[17]  99
    x[18]     packing[22]  36
    x[18]     packing[23]  192
    x[18]     packing[24]  69
    x[18]     packing[25]  194
    x[18]     packing[26]  104
    x[18]     packing[29]  151
    x[18]     packing[30]  124
    x[18]     packing[31]  57
    x[18]     packing[33]  54
    x[18]     packing[34]  99
    x[18]     packing[35]  3
    x[18]     packing[37]  110
    x[18]     packing[38]  116
    x[18]     packing[39]  130
    x[18]     packing[40]  118
    x[18]     packing[41]  37
    x[18]     packing[42]  66
    x[18]     packing[43]  196
    x[18]     packing[44]  66
    x[18]     packing[45]  87
    x[18]     packing[46]  40
    x[18]     packing[47]  180
    x[18]     packing[49]  141
    x[19]     OBJ       139
    x[19]     packing[0]  31
    x[19]     packing[1]  7
    x[19]     packing[2]  97
    x[19]     packing[4]  116
    x[19]     packing[5]  81
    x[19]     packing[6]  163
    x[19]     packing[7]  157
    x[19]     packing[8]  55
    x[19]     packing[9]  42
    x[19]     packing[10]  157
    x[19]     packing[11]  128
    x[19]     packing[12]  168
    x[19]     packing[14]  131
    x[19]     packing[15]  56
    x[19]     packing[16]  185
    x[19]     packing[17]  164
    x[19]     packing[18]  67
    x[19]     packing[19]  24
    x[19]     packing[20]  71
    x[19]     packing[21]  180
    x[19]     packing[22]  59
    x[19]     packing[24]  161
    x[19]     packing[25]  166
    x[19]     packing[26]  60
    x[19]     packing[27]  198
    x[19]     packing[28]  33
    x[19]     packing[29]  54
    x[19]     packing[30]  51
    x[19]     packing[32]  119
    x[19]     packing[33]  110
    x[19]     packing[34]  49
    x[19]     packing[36]  43
    x[19]     packing[37]  71
    x[19]     packing[38]  189
    x[19]     packing[39]  99
    x[19]     packing[40]  170
    x[19]     packing[41]  125
    x[19]     packing[42]  146
    x[19]     packing[43]  188
    x[19]     packing[44]  9
    x[19]     packing[45]  122
    x[19]     packing[46]  54
    x[19]     packing[47]  119
    x[19]     packing[48]  190
    x[19]     packing[49]  96
    x[19]     R52       1
    x[20]     OBJ       93
    x[20]     packing[0]  130
    x[20]     packing[1]  58
    x[20]     packing[2]  179
    x[20]     packing[3]  75
    x[20]     packing[4]  50
    x[20]     packing[5]  23
    x[20]     packing[6]  106
    x[20]     packing[7]  161
    x[20]     packing[8]  47
    x[20]     packing[11]  50
    x[20]     packing[13]  85
    x[20]     packing[15]  94
    x[20]     packing[16]  104
    x[20]     packing[17]  92
    x[20]     packing[18]  29
    x[20]     packing[21]  41
    x[20]     packing[22]  29
    x[20]     packing[23]  79
    x[20]     packing[24]  157
    x[20]     packing[25]  158
    x[20]     packing[26]  198
    x[20]     packing[27]  14
    x[20]     packing[28]  39
    x[20]     packing[30]  150
    x[20]     packing[31]  101
    x[20]     packing[32]  97
    x[20]     packing[35]  26
    x[20]     packing[39]  121
    x[20]     packing[40]  50
    x[20]     packing[41]  24
    x[20]     packing[45]  106
    x[20]     packing[46]  193
    x[20]     packing[47]  128
    x[20]     packing[48]  116
    x[20]     packing[49]  39
    MARKER    'MARKER'                 'INTEND'
RHS
    RHS1      packing[0]  860
    RHS1      packing[1]  874
    RHS1      packing[2]  931
    RHS1      packing[3]  721
    RHS1      packing[4]  817
    RHS1      packing[5]  771
    RHS1      packing[6]  741
    RHS1      packing[7]  779
    RHS1      packing[8]  556
    RHS1      packing[9]  906
    RHS1      packing[10]  696
    RHS1      packing[11]  885
    RHS1      packing[12]  759
    RHS1      packing[13]  797
    RHS1      packing[14]  581
    RHS1      packing[15]  788
    RHS1      packing[16]  696
    RHS1      packing[17]  826
    RHS1      packing[18]  616
    RHS1      packing[19]  722
    RHS1      packing[20]  432
    RHS1      packing[21]  730
    RHS1      packing[22]  872
    RHS1      packing[23]  495
    RHS1      packing[24]  889
    RHS1      packing[25]  868
    RHS1      packing[26]  852
    RHS1      packing[27]  812
    RHS1      packing[28]  600
    RHS1      packing[29]  870
    RHS1      packing[30]  952
    RHS1      packing[31]  647
    RHS1      packing[32]  809
    RHS1      packing[33]  854
    RHS1      packing[34]  859
    RHS1      packing[35]  484
    RHS1      packing[36]  624
    RHS1      packing[37]  873
    RHS1      packing[38]  863
    RHS1      packing[39]  599
    RHS1      packing[40]  745
    RHS1      packing[41]  741
    RHS1      packing[42]  588
    RHS1      packing[43]  875
    RHS1      packing[44]  714
    RHS1      packing[45]  739
    RHS1      packing[46]  640
    RHS1      packing[47]  786
    RHS1      packing[48]  812
    RHS1      packing[49]  514
    RHS1      R52       5
BOUNDS
 BV BND1      x[1]    
 BV BND1      x[2]    
 BV BND1      x[3]    
 BV BND1      x[4]    
 BV BND1      x[5]    
 BV BND1      x[6]    
 BV BND1      x[7]    
 BV BND1      x[8]    
 BV BND1      x[9]    
 BV BND1      x[10]   
 BV BND1      x[11]   
 BV BND1      x[12]   
 BV BND1      x[13]   
 BV BND1      x[14]   
 BV BND1      x[15]   
 BV BND1      x[16]   
 BV BND1      x[17]   
 BV BND1      x[18]   
 BV BND1      x[19]   
 BV BND1      x[20]   
ENDATA
